11409
0 1 0 1 0 1 1 1 1 1 0 0 1 1 1 1 0 1 1 1 
5 5 5 6 5 5 5 5 1 7 19 7 7 7 7 7 7 13 13 12 12 13 13 12 3 15 15 9 9 9 9 9 9 15 18 18 18 18 18 18 18 18 18 18 5 5 7 12 12 15 15 12 1 17 5 15 3 3 1 6 5 9 15 12 1 12 9 5 7 5 17 18 6 1 3 15 3 6 6 8 14 1 12 15 9 3 1 5 15 8 8 8 9 9 9 17 3 1 1 5 